# Solution for model r5_t9_m9_3
# Finished Task: 9 / 9
# Makespan: 412.0, Total Distance: 533.0, Total Time: 0.0111
# R O S F
0 0 7 0.0 0.0
1 1 9 0.0 0.0
2 2 13 0.0 0.0
3 3 8 0.0 0.0
4 4 10 0.0 0.0
5 2 -1 315.0 349.0
6 1 -1 376.0 402.0
7 0 12 263.0 285.0
8 3 11 281.0 309.0
9 1 6 285.0 315.0
10 4 -1 349.0 376.0
11 3 -1 378.0 412.0
12 0 -1 330.0 363.0
13 2 5 161.0 182.0
